# Solution for model r3_t27_m2_1
# Finished Task: 27 / 27
# Makespan: 892.0, Total Distance: 1016.0, Total Time: 9.6668
# R O S F
0 0 3 0.0 0.0
1 1 12 0.0 0.0
2 2 13 0.0 0.0
3 0 29 376.0 411.0
4 2 26 692.0 714.0
5 2 21 549.0 572.0
6 2 11 331.0 366.0
7 2 -1 849.0 884.0
8 2 6 298.0 331.0
9 0 25 633.0 661.0
10 1 22 549.0 574.0
11 2 15 366.0 387.0
12 1 24 186.0 209.0
13 2 8 183.0 220.0
14 2 4 649.0 682.0
15 2 5 428.0 459.0
16 1 -1 864.0 892.0
17 0 19 730.0 765.0
18 1 20 759.0 796.0
19 0 -1 793.0 821.0
20 1 16 837.0 864.0
21 2 14 603.0 627.0
22 1 27 608.0 629.0
23 2 7 804.0 828.0
24 1 10 499.0 537.0
25 0 17 668.0 704.0
26 2 23 733.0 764.0
27 1 28 661.0 686.0
28 1 18 700.0 735.0
29 0 9 558.0 596.0
